%BLOCK LATTICE_CART
       9.0 0.0 0.0
       0.0 9.0 0.0
       0.0 0.0 9.0
%ENDBLOCK LATTICE_CART			

%BLOCK POSITIONS_FRAC      
 Fe   0.000   0.000   0.000 spin=2.2
 Fe   0.333   0.000   0.000 spin=2.2
 Fe   0.000   0.333   0.000 spin=2.2
 Fe   0.000   0.000   0.333 spin=2.2
 Fe   0.333   0.333   0.000 spin=2.2
 Fe   0.333   0.000   0.333 spin=2.2
 Fe   0.000   0.333   0.333 spin=2.2
 Fe   0.333   0.666   0.000 spin=2.2
 Fe   0.333   0.000   0.666 spin=2.2
 Fe   0.666   0.333   0.000 spin=2.2
 Fe   0.666   0.000   0.333 spin=2.2
 Fe   0.000   0.333   0.666 spin=2.2
 Fe   0.000   0.666   0.333 spin=2.2
 Fe   0.666   0.000   0.000 spin=2.2
 Fe   0.000   0.666   0.000 spin=2.2
 Fe   0.000   0.000   0.666 spin=2.2
 Fe   0.666   0.666   0.000 spin=2.2
 Fe   0.666   0.000   0.666 spin=2.2
 Fe   0.000   0.666   0.666 spin=2.2
 Fe   0.333   0.333   0.333 spin=2.2
 Fe   0.333   0.666   0.333 spin=2.2
 Fe   0.333   0.333   0.666 spin=2.2
 Fe   0.666   0.333   0.333 spin=2.2
 Fe   0.666   0.666   0.333 spin=2.2
 Fe   0.666   0.333   0.666 spin=2.2
 Fe   0.333   0.666   0.666 spin=2.2
 Fe   0.666   0.666   0.666 spin=2.2

 Fe   0.166   0.166   0.166 spin=2.2
 Fe   0.500   0.166   0.166 spin=2.2
 Fe   0.166   0.500   0.166 spin=2.2
 Fe   0.166   0.166   0.500 spin=2.2
 Fe   0.500   0.500   0.166 spin=2.2
 Fe   0.500   0.166   0.500 spin=2.2
 Fe   0.166   0.500   0.500 spin=2.2
 Fe   0.500   0.833   0.166 spin=2.2
 Fe   0.500   0.166   0.833 spin=2.2
 Fe   0.833   0.500   0.166 spin=2.2
 Fe   0.833   0.166   0.500 spin=2.2
 Fe   0.166   0.500   0.833 spin=2.2
 Fe   0.166   0.833   0.500 spin=2.2
 Fe   0.833   0.166   0.166 spin=2.2
 Fe   0.166   0.833   0.166 spin=2.2
 Fe   0.166   0.166   0.833 spin=2.2
 Fe   0.833   0.833   0.166 spin=2.2
 Fe   0.833   0.166   0.833 spin=2.2
 Fe   0.166   0.833   0.833 spin=2.2
 Fe   0.500   0.500   0.500 spin=2.2
 Fe   0.500   0.833   0.500 spin=2.2
 Fe   0.500   0.500   0.833 spin=2.2
 Fe   0.833   0.500   0.500 spin=2.2
 Fe   0.833   0.833   0.500 spin=2.2
 Fe   0.833   0.500   0.833 spin=2.2
 Fe   0.500   0.833   0.833 spin=2.2
 Fe   0.833   0.833   0.833 spin=2.2 
%ENDBLOCK POSITIONS_FRAC

kpoints_mp_grid: 4 4 4

symmetry_generate

%block bs_kpoint_path
0.500 0.500 0.000
0.000 0.000 0.000
0.500 0.500 0.500
0.000 0.500 0.000
0.000 0.000 0.000
%endblock bs_kpoint_path

%block species_pot
Fe Fe_00.recpot
%endblock species_pot
