%BLOCK LATTICE_CART
       12.0 00.0 00.0
       00.0 12.0 00.0
       00.0 00.0 12.0
%ENDBLOCK LATTICE_CART			

%BLOCK POSITIONS_FRAC      
 Fe   0.000   0.000   0.000 spin=2.2
 
 Fe   0.250   0.000   0.000 spin=2.2
 Fe   0.500   0.000   0.000 spin=2.2
 Fe   0.750   0.000   0.000 spin=2.2
 
 Fe   0.000   0.250   0.000 spin=2.2
 Fe   0.000   0.500   0.000 spin=2.2
 Fe   0.000   0.750   0.000 spin=2.2
 
 Fe   0.000   0.000   0.250 spin=2.2
 Fe   0.000   0.000   0.500 spin=2.2
 Fe   0.000   0.000   0.750 spin=2.2
 
 Fe   0.250   0.250   0.000 spin=2.2
 Fe   0.500   0.250   0.000 spin=2.2
 Fe   0.750   0.250   0.000 spin=2.2
 Fe   0.250   0.500   0.000 spin=2.2
 Fe   0.250   0.750   0.000 spin=2.2
 Fe   0.500   0.500   0.000 spin=2.2
 Fe   0.500   0.750   0.000 spin=2.2
 Fe   0.750   0.500   0.000 spin=2.2
 Fe   0.750   0.750   0.000 spin=2.2
 
 Fe   0.250   0.000   0.250 spin=2.2
 Fe   0.250   0.000   0.500 spin=2.2
 Fe   0.250   0.000   0.750 spin=2.2
 Fe   0.500   0.000   0.250 spin=2.2
 Fe   0.750   0.000   0.250 spin=2.2
 Fe   0.500   0.000   0.500 spin=2.2
 Fe   0.500   0.000   0.750 spin=2.2
 Fe   0.750   0.000   0.500 spin=2.2
 Fe   0.750   0.000   0.750 spin=2.2

 Fe   0.250   0.250   0.250 spin=2.2
 Fe   0.500   0.250   0.250 spin=2.2
 Fe   0.750   0.250   0.250 spin=2.2
 Fe   0.250   0.500   0.250 spin=2.2
 Fe   0.250   0.750   0.250 spin=2.2
 Fe   0.500   0.500   0.250 spin=2.2
 Fe   0.500   0.750   0.250 spin=2.2
 Fe   0.750   0.500   0.250 spin=2.2
 Fe   0.750   0.750   0.250 spin=2.2
 Fe   0.250   0.250   0.500 spin=2.2
 Fe   0.500   0.250   0.500 spin=2.2
 Fe   0.750   0.250   0.500 spin=2.2
 Fe   0.250   0.500   0.500 spin=2.2
 Fe   0.250   0.750   0.500 spin=2.2
 Fe   0.500   0.500   0.500 spin=2.2
 Fe   0.500   0.750   0.500 spin=2.2
 Fe   0.750   0.500   0.500 spin=2.2
 Fe   0.750   0.750   0.500 spin=2.2
 Fe   0.250   0.250   0.750 spin=2.2
 Fe   0.500   0.250   0.750 spin=2.2
 Fe   0.750   0.250   0.750 spin=2.2
 Fe   0.250   0.500   0.750 spin=2.2
 Fe   0.250   0.750   0.750 spin=2.2
 Fe   0.500   0.500   0.750 spin=2.2
 Fe   0.500   0.750   0.750 spin=2.2
 Fe   0.750   0.500   0.750 spin=2.2
 Fe   0.750   0.750   0.750 spin=2.2
 
 Fe   0.000   0.250   0.250 spin=2.2
 Fe   0.000   0.250   0.500 spin=2.2
 Fe   0.000   0.250   0.750 spin=2.2
 Fe   0.000   0.250   0.250 spin=2.2
 Fe   0.000   0.500   0.250 spin=2.2
 Fe   0.000   0.750   0.250 spin=2.2
 Fe   0.000   0.500   0.500 spin=2.2
 Fe   0.000   0.500   0.750 spin=2.2
 Fe   0.000   0.750   0.500 spin=2.2
 Fe   0.000   0.750   0.750 spin=2.2  
 
 Fe   0.125   0.125   0.125 spin=2.2
 
 Fe   0.375   0.125   0.125 spin=2.2 
 Fe   0.625   0.125   0.125 spin=2.2 
 Fe   0.875   0.125   0.125 spin=2.2
 
 Fe   0.125   0.375   0.125 spin=2.2 
 Fe   0.125   0.625   0.125 spin=2.2 
 Fe   0.125   0.875   0.125 spin=2.2
 
 Fe   0.125   0.125   0.375 spin=2.2 
 Fe   0.125   0.125   0.625 spin=2.2
 Fe   0.125   0.125   0.875 spin=2.2
 
 Fe   0.375   0.375   0.125 spin=2.2 
 Fe   0.625   0.375   0.125 spin=2.2 
 Fe   0.875   0.375   0.125 spin=2.2 
 Fe   0.375   0.625   0.125 spin=2.2 
 Fe   0.375   0.875   0.125 spin=2.2
 Fe   0.625   0.625   0.125 spin=2.2
 Fe   0.625   0.875   0.125 spin=2.2
 Fe   0.875   0.625   0.125 spin=2.2
 Fe   0.875   0.875   0.125 spin=2.2
 
 Fe   0.375   0.125   0.375 spin=2.2
 Fe   0.625   0.125   0.375 spin=2.2 
 Fe   0.875   0.125   0.375 spin=2.2 
 Fe   0.375   0.125   0.625 spin=2.2
 Fe   0.375   0.125   0.875 spin=2.2
 Fe   0.625   0.125   0.625 spin=2.2
 Fe   0.625   0.125   0.875 spin=2.2
 Fe   0.875   0.125   0.625 spin=2.2
 Fe   0.875   0.125   0.875 spin=2.2

 Fe   0.125   0.375   0.375 spin=2.2
 Fe   0.125   0.375   0.625 spin=2.2
 Fe   0.125   0.375   0.875 spin=2.2
 Fe   0.125   0.625   0.375 spin=2.2
 Fe   0.125   0.875   0.375 spin=2.2
 Fe   0.125   0.625   0.625 spin=2.2
 Fe   0.125   0.625   0.875 spin=2.2
 Fe   0.125   0.875   0.625 spin=2.2
 Fe   0.125   0.875   0.875 spin=2.2

 Fe   0.375   0.375   0.375 spin=2.2 
 Fe   0.625   0.375   0.375 spin=2.2 
 Fe   0.875   0.375   0.375 spin=2.2 
 Fe   0.375   0.625   0.375 spin=2.2 
 Fe   0.375   0.875   0.375 spin=2.2
 Fe   0.625   0.625   0.375 spin=2.2
 Fe   0.625   0.875   0.375 spin=2.2
 Fe   0.875   0.625   0.375 spin=2.2
 Fe   0.875   0.875   0.375 spin=2.2
 Fe   0.375   0.375   0.625 spin=2.2 
 Fe   0.625   0.375   0.625 spin=2.2 
 Fe   0.875   0.375   0.625 spin=2.2 
 Fe   0.375   0.625   0.625 spin=2.2 
 Fe   0.375   0.875   0.625 spin=2.2
 Fe   0.625   0.625   0.625 spin=2.2
 Fe   0.625   0.875   0.625 spin=2.2
 Fe   0.875   0.625   0.625 spin=2.2
 Fe   0.875   0.875   0.625 spin=2.2
 Fe   0.375   0.375   0.875 spin=2.2 
 Fe   0.625   0.375   0.875 spin=2.2 
 Fe   0.875   0.375   0.875 spin=2.2 
 Fe   0.375   0.625   0.875 spin=2.2 
 Fe   0.375   0.875   0.875 spin=2.2
 Fe   0.625   0.625   0.875 spin=2.2
 Fe   0.625   0.875   0.875 spin=2.2
 Fe   0.875   0.625   0.875 spin=2.2
 Fe   0.875   0.875   0.875 spin=2.2
 
%ENDBLOCK POSITIONS_FRAC

kpoints_mp_grid: 8 8 8

symmetry_generate

%block bs_kpoint_path
0.500 0.500 0.000
0.000 0.000 0.000
0.500 0.500 0.500
0.000 0.500 0.000
0.000 0.000 0.000
%endblock bs_kpoint_path

%block species_pot
Fe Fe_00.recpot
%endblock species_pot
